Route #1: 84 110 52 121 70 32 126
Route #2: 48 128 29 119 39
Route #3: 25 98 9 38 13 17 43 100 15 75
Route #4: 101 50 93 117 96 97 74 115 33
Route #5: 103 113 73 27 37 108
Route #6: 71 118 116 123 107 6 124
Route #7: 72 66 106 77 80 11 105 109
Route #8: 127 12 86 62 42 56 41 59 102 18 111
Route #9: 122 95 112 5 99 69 81 54
Route #10: 88 129 82 30 46 7 55
Route #11: 79 120 64 10 125 83
Route #12: 87 89 114 28 53 21 51
Route #13: 8 23 47 34 22 35 3 49 20
Route #14: 4
Route #15: 94 40 26 85 44 31 68
Route #16: 63 57 14 58 36 78 61
Route #17: 16 67 90 104 76 92
Route #18: 91 45 2 24 60 19 65
